NAME : kroB100-R-3-0-a.37706.tour
COMMENT : Length = 37706
COMMENT : Found by LKH-3 [Keld Helsgaun] Tue Jul 30 13:14:56 2024
TYPE : TOUR
DIMENSION : 100
TOUR_SECTION
1
95
11
73
53
86
20
30
75
69
26
100
79
65
37
22
54
52
34
46
12
71
27
61
74
60
89
15
82
42
63
13
78
41
17
36
45
2
24
55
23
88
47
56
62
5
67
70
39
10
93
28
97
8
59
32
90
21
25
35
94
7
43
87
66
4
6
83
14
64
33
51
48
31
44
19
92
96
18
77
16
50
58
84
57
9
72
81
80
38
49
68
40
85
3
91
99
76
29
98
-1
EOF
